c Random generated cnf formula, satisfiable: true
p cnf 10 50
-1 -7 9 0
1 -10 -6 0
2 9 5 0
-5 2 -3 0
-5 -8 7 0
-3 7 10 0
7 6 -8 0
3 5 2 0
5 -2 -1 0
-1 6 9 0
-3 7 -6 0
-6 4 -7 0
6 -9 3 0
1 4 -5 0
-3 6 -10 0
-6 10 -9 0
1 3 9 0
1 7 -3 0
-4 -5 3 0
6 3 -9 0
5 6 -1 0
6 10 -8 0
4 2 -10 0
8 -1 2 0
-4 -3 8 0
-8 -4 6 0
1 5 -6 0
6 5 -3 0
-9 1 -4 0
8 9 -10 0
2 7 10 0
-10 3 7 0
2 5 3 0
6 -3 4 0
9 5 -7 0
-4 5 -7 0
4 6 -2 0
4 9 7 0
6 2 -10 0
9 -10 6 0
-1 -9 -7 0
2 -5 4 0
3 -7 -6 0
-9 -2 7 0
9 -1 7 0
-10 2 -7 0
4 -8 -3 0
8 10 -9 0
7 -4 -3 0
-5 1 4 0
